
Gurobi 9.1.2 (win64) logging started Sun Dec  5 18:17:58 2021

Gurobi Optimizer version 9.1.2 build v9.1.2rc0 (win64)
Thread count: 8 physical cores, 8 logical processors, using up to 8 threads
Optimize a model with 1 rows, 77 columns and 76 nonzeros
Model fingerprint: 0xb3b36fdf
Variable types: 1 continuous, 76 integer (76 binary)
Coefficient statistics:
  Matrix range     [1e+00, 1e+01]
  Objective range  [1e+00, 1e+00]
  Bounds range     [3e+01, 3e+01]
  RHS range        [1e+01, 1e+01]
Presolve time: 0.00s
Presolved: 1 rows, 77 columns, 76 nonzeros
Variable types: 1 continuous, 76 integer (76 binary)

Root simplex log...

Iteration    Objective       Primal Inf.    Dual Inf.      Time
       0   -2.9868879e+01   1.408071e-01   0.000000e+00     15s
       2   -2.9868879e+01   0.000000e+00   0.000000e+00     15s

Root relaxation: objective -2.986888e+01, 2 iterations, 0.00 seconds

    Nodes    |    Current Node    |     Objective Bounds      |     Work
 Expl Unexpl |  Obj  Depth IntInf | Incumbent    BestBd   Gap | It/Node Time

     0     0  -29.86888    0    2          -  -29.86888      -     -   15s
H    0     0                       0.5158738  -29.86888  5890%     -   15s
     0     0  -25.69359    0    3    0.51587  -25.69359  5081%     -   15s
     0     0  -23.47467    0    5    0.51587  -23.47467  4650%     -   16s
H    0     0                       0.1522883  -23.47467      -     -   16s
     0     0  -19.23523    0    4    0.15229  -19.23523      -     -   16s
     0     0  -19.20198    0    5    0.15229  -19.20198      -     -   16s
     0     0  -14.76795    0    4    0.15229  -14.76795  9797%     -   16s

Explored 1 nodes (39 simplex iterations) in 16.63 seconds
Thread count was 8 (of 8 available processors)

Solution count 2: 0.152288 0.515874 

Optimal solution found (tolerance 1.00e-04)
Best objective 1.522883443831e-01, best bound 1.522883443831e-01, gap 0.0000%

User-callback calls 103, time in user-callback 20.27 sec

Gurobi 9.1.2 (win64) logging started Mon Dec  6 13:02:21 2021

Gurobi Optimizer version 9.1.2 build v9.1.2rc0 (win64)
Thread count: 8 physical cores, 8 logical processors, using up to 8 threads
Optimize a model with 1 rows, 77 columns and 76 nonzeros
Model fingerprint: 0xb3b36fdf
Variable types: 1 continuous, 76 integer (76 binary)
Coefficient statistics:
  Matrix range     [1e+00, 1e+01]
  Objective range  [1e+00, 1e+00]
  Bounds range     [3e+01, 3e+01]
  RHS range        [1e+01, 1e+01]
Presolve time: 0.00s
Presolved: 1 rows, 77 columns, 76 nonzeros
Variable types: 1 continuous, 76 integer (76 binary)

Root simplex log...

Iteration    Objective       Primal Inf.    Dual Inf.      Time
       0   -2.9868879e+01   1.408071e-01   0.000000e+00     15s
       2   -2.9868879e+01   0.000000e+00   0.000000e+00     15s

Root relaxation: objective -2.986888e+01, 2 iterations, 0.00 seconds

    Nodes    |    Current Node    |     Objective Bounds      |     Work
 Expl Unexpl |  Obj  Depth IntInf | Incumbent    BestBd   Gap | It/Node Time

     0     0  -29.86888    0    2          -  -29.86888      -     -   14s
H    0     0                       0.5158738  -29.86888  5890%     -   14s
     0     0  -25.69359    0    3    0.51587  -25.69359  5081%     -   14s
     0     0  -23.47467    0    5    0.51587  -23.47467  4650%     -   16s
H    0     0                       0.1522883  -23.47467      -     -   16s
     0     0  -19.23523    0    4    0.15229  -19.23523      -     -   16s
     0     0  -19.20198    0    5    0.15229  -19.20198      -     -   16s
     0     0  -14.76795    0    4    0.15229  -14.76795  9797%     -   16s

Explored 1 nodes (39 simplex iterations) in 16.50 seconds
Thread count was 8 (of 8 available processors)

Solution count 2: 0.152288 0.515874 

Optimal solution found (tolerance 1.00e-04)
Best objective 1.522883443831e-01, best bound 1.522883443831e-01, gap 0.0000%

User-callback calls 103, time in user-callback 20.25 sec
